 &control
    calculation   = 'relax'
    restart_mode  = 'from_scratch',
    prefix        = 'N2-molecule',
    tprnfor       = .false.
    pseudo_dir    = '../PP',
    outdir        = 'calc'
    forc_conv_thr = 0.0001
 /
 &system
    ibrav   = 1,
    a       = 12.0,
    nat     = 2, 
    ntyp    = 1,
    ecutwfc = 50.0,
    ecutrho = 320.0,
 /
 &electrons
    mixing_beta = 0.7
    conv_thr    = 1.0d-8
 /
 &ions
    ion_dynamics = "bfgs",
 /
ATOMIC_SPECIES
 N  2.00 N.pbe-n-kjpaw_psl.1.0.0.UPF
ATOMIC_POSITIONS angstrom
 N 0.00 0.00 0.00
 N 1.30 0.00 0.00
K_POINTS gamma
