 &control
    calculation  = 'vc-relax'
    prefix       = 'silicon',
    outdir       = 'outdir'
    pseudo_dir   = '../PP/'
    restart_mode = 'from_scratch',
 /
 &system
    ibrav     = 2, 
    celldm(1) = 11.00, 
    nat       = 2, 
    ntyp      = 1,
    ecutwfc   = 18.0,
 /
 &electrons
    diagonalization = 'david'
    mixing_mode     = 'plain'
    mixing_beta     = 0.7
    conv_thr        = 1.0d-8
 /
 &ions
 ion_dynamics  = 'bfgs'
 /
 &cell
 cell_dynamics = 'bfgs'
 press         = 0.0
 /
ATOMIC_SPECIES
 Si  28.086  Si.pbe-n-kjpaw_psl.1.0.0.UPF
ATOMIC_POSITIONS crystal
 Si 0.00 0.00 0.00 0 0 0
 Si 0.25 0.25 0.25
K_POINTS automatic
 6 6 6 0 0 0
