 &control
    calculation  = 'vc-relax'
    prefix       = 'germanium',
    outdir       = 'outdir'
    pseudo_dir   = '../../PP/'
    restart_mode = 'from_scratch',
    tstress      = .true. 
/
 &system
    ibrav     = 2, 
    celldm(1) = 7.50, 
    nat       = 2, 
    ntyp      = 1,
    ecutwfc   = 35.0,
 /
 &electrons
    diagonalization = 'david'
    mixing_mode     = 'plain'
    mixing_beta     = 0.7
    conv_thr        = 1.0d-8
 /
 &ions
 ion_dynamics  = 'bfgs'
 /
 &cell
 cell_dynamics = 'bfgs'
 press         = 0.000
 /
ATOMIC_SPECIES
 Ge  72.64  Ge.pbe-dn-kjpaw_psl.0.2.2.UPF
ATOMIC_POSITIONS crystal
 Ge 0.00 0.00 0.00 0 0 0
 Ge 0.25 0.25 0.25 0 0 0
K_POINTS automatic
 6 6 6 0 0 0
