&dos
  outdir   = "outdir",
  prefix   = "cu"
  fildos   = "cu.dos",
  Emin     = -10.0,
  Emax     = 20.0,
  DeltaE   = 0.05
/
