 &PROJWFC
  prefix     = 'cu'
  outdir     = 'outdir'
  filpdos    = 'cu.dos',
  Emin       = 0.0,
  Emax       = 25.0,
  DeltaE     = 0.05
 /
  
