 &control
    calculation  = 'scf'
    restart_mode = 'from_scratch',
    pseudo_dir   = '../../../PP',
    outdir       = 'outdir',
    prefix       = 'aluminium'
    tprnfor      = .true.
    tstress      = .true.
 /
 &system
    ibrav       = 2,
    celldm(1)   = 7.50,
    nat         = 1,
    ntyp        = 1,
    ecutwfc     = $CUTOFF$
    occupations = 'smearing',
    smearing    = 'marzari-vanderbilt', 
    degauss     = 0.05
 /
 &electrons
    diagonalization = 'david'
    mixing_beta     = 0.7
 /
ATOMIC_SPECIES
 Al  26.98 Al.pz-vbc.UPF
ATOMIC_POSITIONS
 Al 0.00 0.00 0.00
K_POINTS automatic
 $KP$ 0 0 0
