&INPUTPP
    outdir       = 'outdir',
    prefix       = 'aluminium',
    plot_num     = 0,
/
&PLOT
	iflag 		  = 3,
	output_format = 6,
	fileout       = 'aluminium_rho.cube',
	nx            = 64,
	ny            = 64,
	nz            = 64,
/
