 &control
    calculation  = 'scf'
    restart_mode = 'from_scratch',
    pseudo_dir   = '../PP',
    outdir       = 'outdir',
    prefix       = 'aluminium'
    tprnfor      = .true.
    tstress      = .true.
 /
 &system
  ibrav     = 2,
  celldm(1) = 7.50,
  nat       = 1,
  ntyp      = 1,
  ecutwfc   = 50.0,
  ecutrho   = 500.0,
  occupations = 'smearing',
  smearing    = 'marzari-vanderbilt',
  degauss     = 0.005
 /
 &electrons
    diagonalization = 'david'
    mixing_beta     = 0.7
 /
ATOMIC_SPECIES
 Al  26.98 Al.pbe-n-kjpaw_psl.1.0.0.UPF
ATOMIC_POSITIONS
 Al 0.00 0.00 0.00
K_POINTS automatic
 10 10 10 0 0 0
