 &input
  zasr='simple',  
  fildyn='ge.dyn.',
  flfrc='ge.fc',
 /

