 &control
    calculation='vc-md'
    restart_mode='from_scratch',
    pseudo_dir = '.',
    outdir='calc',
    dt=20,
    nstep=5000,
    disk_io='high'
 /
 &system
    ibrav= 0, nat=  64, ntyp= 1,
    ecutwfc = 15.0, nosym=.true.
 /
 &electrons
    conv_thr =  1.0d-7,
    mixing_beta = 0.7
 /
 &ions
    ion_dynamics='beeman'
    ion_temperature='berendsen'
    tempw=300.0,
    pot_extrapolation='second-order'
    wfc_extrapolation='second-order'
 /
 &cell
    cell_dynamics='pr'
 /
ATOMIC_SPECIES
 Si  28.086  Si.pz-vbc.UPF
CELL_PARAMETERS angstrom
    10.8599999999999994    0.0000000000000000    0.0000000000000000
     0.0000000000000000   10.8599999999999994    0.0000000000000000
     0.0000000000000000    0.0000000000000000   10.8599999999999994
ATOMIC_POSITIONS angstrom
Si  0.0000000000000000  0.0000000000000000  0.0000000000000000
Si  1.3574999999999999  1.3574999999999999  1.3574999999999999
Si  2.7149999999999999  2.7149999999999999  0.0000000000000000
Si  4.0724999999999998  4.0724999999999998  1.3574999999999999
Si  2.7149999999999999  0.0000000000000000  2.7149999999999999
Si  4.0724999999999998  1.3574999999999999  4.0724999999999998
Si  0.0000000000000000  2.7149999999999999  2.7149999999999999
Si  1.3574999999999999  4.0724999999999998  4.0724999999999998
Si  0.0000000000000000  0.0000000000000000  5.4299999999999997
Si  1.3574999999999999  1.3574999999999999  6.7874999999999996
Si  2.7149999999999999  2.7149999999999999  5.4299999999999997
Si  4.0724999999999998  4.0724999999999998  6.7874999999999996
Si  2.7149999999999999  0.0000000000000000  8.1449999999999996
Si  4.0724999999999998  1.3574999999999999  9.5024999999999995
Si  0.0000000000000000  2.7149999999999999  8.1449999999999996
Si  1.3574999999999999  4.0724999999999998  9.5024999999999995
Si  0.0000000000000000  5.4299999999999997  0.0000000000000000
Si  1.3574999999999999  6.7874999999999996  1.3574999999999999
Si  2.7149999999999999  8.1449999999999996  0.0000000000000000
Si  4.0724999999999998  9.5024999999999995  1.3574999999999999
Si  2.7149999999999999  5.4299999999999997  2.7149999999999999
Si  4.0724999999999998  6.7874999999999996  4.0724999999999998
Si  0.0000000000000000  8.1449999999999996  2.7149999999999999
Si  1.3574999999999999  9.5024999999999995  4.0724999999999998
Si  0.0000000000000000  5.4299999999999997  5.4299999999999997
Si  1.3574999999999999  6.7874999999999996  6.7874999999999996
Si  2.7149999999999999  8.1449999999999996  5.4299999999999997
Si  4.0724999999999998  9.5024999999999995  6.7874999999999996
Si  2.7149999999999999  5.4299999999999997  8.1449999999999996
Si  4.0724999999999998  6.7874999999999996  9.5024999999999995
Si  0.0000000000000000  8.1449999999999996  8.1449999999999996
Si  1.3574999999999999  9.5024999999999995  9.5024999999999995
Si  5.4299999999999997  0.0000000000000000  0.0000000000000000
Si  6.7874999999999996  1.3574999999999999  1.3574999999999999
Si  8.1449999999999996  2.7149999999999999  0.0000000000000000
Si  9.5024999999999995  4.0724999999999998  1.3574999999999999
Si  8.1449999999999996  0.0000000000000000  2.7149999999999999
Si  9.5024999999999995  1.3574999999999999  4.0724999999999998
Si  5.4299999999999997  2.7149999999999999  2.7149999999999999
Si  6.7874999999999996  4.0724999999999998  4.0724999999999998
Si  5.4299999999999997  0.0000000000000000  5.4299999999999997
Si  6.7874999999999996  1.3574999999999999  6.7874999999999996
Si  8.1449999999999996  2.7149999999999999  5.4299999999999997
Si  9.5024999999999995  4.0724999999999998  6.7874999999999996
Si  8.1449999999999996  0.0000000000000000  8.1449999999999996
Si  9.5024999999999995  1.3574999999999999  9.5024999999999995
Si  5.4299999999999997  2.7149999999999999  8.1449999999999996
Si  6.7874999999999996  4.0724999999999998  9.5024999999999995
Si  5.4299999999999997  5.4299999999999997  0.0000000000000000
Si  6.7874999999999996  6.7874999999999996  1.3574999999999999
Si  8.1449999999999996  8.1449999999999996  0.0000000000000000
Si  9.5024999999999995  9.5024999999999995  1.3574999999999999
Si  8.1449999999999996  5.4299999999999997  2.7149999999999999
Si  9.5024999999999995  6.7874999999999996  4.0724999999999998
Si  5.4299999999999997  8.1449999999999996  2.7149999999999999
Si  6.7874999999999996  9.5024999999999995  4.0724999999999998
Si  5.4299999999999997  5.4299999999999997  5.4299999999999997
Si  6.7874999999999996  6.7874999999999996  6.7874999999999996
Si  8.1449999999999996  8.1449999999999996  5.4299999999999997
Si  9.5024999999999995  9.5024999999999995  6.7874999999999996
Si  8.1449999999999996  5.4299999999999997  8.1449999999999996
Si  9.5024999999999995  6.7874999999999996  9.5024999999999995
Si  5.4299999999999997  8.1449999999999996  8.1449999999999996
Si  6.7874999999999996  9.5024999999999995  9.5024999999999995
K_POINTS {automatic}
 1 1 1 0 0 0
