&dos
  outdir   = "carbon-graphene-outdir",
  prefix   = "carbon-graphene"
  fildos   = "c-graphene.dos",
  Emin     = -10.0,
  Emax     = 20.0,
  DeltaE   = 0.05
/
