&dos
  outdir   = "carbon-graphite-outdir",
  prefix   = "carbon-graphite"
  fildos   = "c-graphite.dos",
  Emin     = -10.0,
  Emax     = 20.0,
  DeltaE   = 0.05
/
