&PROJWFC
  prefix  = 'carbon-diamond',
  outdir  = 'carbon-diamond-outdir',
  filpdos = 'carbond-diamond_pdos.dat'
/
