&control
  calculation  = 'carbon-graphite-nscf',
  prefix       = 'carbon-graphite',
  outdir       = 'carbon-graphite-outdir',
  pseudo_dir   = '../PP/'
  disk_io      = 'low'
  tstress      = .false.
  tprnfor      = .false.
  verbosity    = 'low'
/
&system
  ibrav     = 2, 
  ===== FILL ME =======
  nat       = ?,
  ntyp      = 1,
  nbnd      = 8
  ecutwfc   = 18.0,
  input_dft = 'rvv10',
/
 &electrons
  diagonalization = 'david'
 /
ATOMIC_SPECIES
 C  12.0107  C.rvv10-n-kjpaw_psl.1.0.0.UPF
ATOMIC_POSITIONS crystal
  ===== FILL ME =======
K_POINTS automatic
  ===== FILL ME =======
