&PROJWFC
  prefix  = 'carbon-graphene',
  outdir  = 'carbon-graphene-outdir',
  filpdos = 'carbon-graphene'
/
