 &control
    calculation  = 'scf'
    restart_mode = 'from_scratch',
    prefix       = 'N2-molecule',
    tprnfor      = .false.
    pseudo_dir   = '../../PP',
    outdir       = 'calc'
 /
 &system
    ibrav   = 1,
    a       = 12.0,
    nat     = 2, 
    ntyp    = 1,
    ecutwfc = 50.0,
    ecutrho = 320.0,
 /
 &electrons
    mixing_beta = 0.5
    conv_thr    = 1.0d-8
 /
ATOMIC_SPECIES
 N  2.00 N.pbe-n-kjpaw_psl.1.0.0.UPF
ATOMIC_POSITIONS angstrom
 N 0.00 0.00 0.00
 N $A$  0.00 0.00
K_POINTS gamma
