&bands
    prefix     = 'aluminium',
    outdir     = 'outdir',
    filband    = 'al.bands',
    no_overlap = .true.,
/

