&dos
  outdir   = "outdir",
  prefix   = "aluminium"
  fildos   = "al.dos",
  Emin     = -10.0,
  Emax     = 40.0,
  DeltaE   = 0.05
/
