&control
  calculation  = 'nscf',
  prefix       = 'aluminium',
  outdir       = 'outdir',
  pseudo_dir   = '../PP'
  disk_io      = 'low'
  tstress      = .true.
  tprnfor      = .true.
  verbosity    = 'low'
/
 &system
    ibrav       = 2,
    celldm(1)   = 7.50,
    nat         = 1,
    ntyp        = 1,
    ecutwfc     = 15.0,
 /
 &electrons
  diagonalization = 'david'
 /
ATOMIC_SPECIES
 Al  26.98 Al.pz-vbc.UPF
ATOMIC_POSITIONS
 Al 0.00 0.00 0.00
K_POINTS automatic
 15 15 15 0 0 0
