 &control
    calculation   = 'relax'
    restart_mode  = 'from_scratch',
    prefix        = 'H2O-molecule',
    tprnfor       = .true.
    pseudo_dir    = '../PP',
    outdir        = 'calc'
    forc_conv_thr = 0.0001
 /
 &system
    ibrav   = 1,
    a       = 12.0,
    nat     = 3, 
    ntyp    = 2,
    ecutwfc = 50.0,
    ecutrho = 400.0,
 /
 &electrons
    mixing_beta = 0.7
    conv_thr    = 1.0d-8
 /
 &ions
    ion_dynamics = "bfgs",
 /
ATOMIC_SPECIES
 H  2.00 H.pbe-kjpaw_psl.1.0.0.UPF
 O  1.00 O.pbe-n-kjpaw_psl.1.0.0.UPF
ATOMIC_POSITIONS angstrom
 H 0.00 0.05 0.00
 O 1.40 0.00 0.00
 H 2.80 0.00 0.00
K_POINTS gamma
