&control
  calculation  = 'scf',
  restart_mode = 'from_scratch',
  prefix       = 'silicon',
  outdir       = 'outdir',
  pseudo_dir   = '../PP'
  tstress      = .false.,
  tprnfor      = .false.,
/
&system
  ibrav     = 2, 
  celldm(1) = 10.16, 
  nat       = 2, 
  ntyp      = 1,
  ecutwfc   = 50.0,
  ecutrho   = 500.0,
  occupations = 'smearing',
  smearing    = 'marzari-vanderbilt', 
  degauss     = 0.005
/
&electrons
  diagonalization = 'david',
  mixing_mode     = 'plain',
  mixing_beta     = 0.7,
  conv_thr        = 1.0d-8,
/
ATOMIC_SPECIES
 Si  28.086  Si.pz-vbc.UPF
ATOMIC_POSITIONS crystal
 Si 0.00 0.00 0.00
 Si 0.25 0.25 0.25
K_POINTS automatic
 6 6 6 0 0 0
