&bands
    prefix     = "carbon-diamond",
    outdir     = "outdir",
    filband    = "c-diamond.bands",
    no_overlap = .true.,
/

