 &control
    calculation = 'bands'
    prefix      = 'carbon-graphite'
    outdir      = 'carbon-graphite-outdir',
    pseudo_dir  = '../PP'
 /
 &system
    ibrav     = 2, 
   ===== FILL ME =======
    nat       = ?,
    ntyp      = 1,
    ecutwfc   = 18.0, 
    nbnd      = 8,
 /
 &electrons
    diagonalization='david'
 /
ATOMIC_SPECIES
 C  12.0107  C.rvv10-n-kjpaw_psl.1.0.0.UPF
ATOMIC_POSITIONS crystal
===== INSERT HERE ======
K_POINTS
===== INSERT HERE ======

