&bands
    prefix     = "carbon-graphene",
    outdir     = "carbon-graphene-outdir",
    filband    = "c-graphene.bands",
    no_overlap = .true.,
/

