 &input
  zasr='simple',  
  fildyn='si.dyn.', 
  flfrc='si.fc', 
 /

