 &control
    calculation='scf',
    restart_mode='from_scratch',
    prefix='silicon'
    pseudo_dir = '../PP',
    outdir='calc'
 /
 &system
    ibrav     = 2, 
    celldm(1) = 10.20, 
    nat       = 2, 
    ntyp      = 1,
    ecutwfc   = 18.0
 /
 &electrons
    mixing_beta = 0.7
    conv_thr    = 1.0d-10
 /
ATOMIC_SPECIES
 Si  28.086  Si.pz-vbc.UPF
ATOMIC_POSITIONS crystal
 Si 0.00 0.00 0.00
 Si 0.25 0.25 0.25
K_POINTS automatic
 10 10 10 0 0 0
