 &control
    calculation  = 'vc-relax'
    prefix       = 'silicon',
    outdir       = 'outdir'
    pseudo_dir   = '../PP/'
    restart_mode = 'from_scratch',
 /
 &system
    ibrav     = 2, 
    celldm(1) = 10.50, 
    nat       = 2, 
    ntyp      = 1,
    ecutwfc   = 45.0,
    ecutrho   = 300.0,
 /
 &electrons
    diagonalization = 'david'
    mixing_mode     = 'plain'
    mixing_beta     = 0.7
    conv_thr        = 1.0d-7
 /
 &ions
    ion_dynamics = "bfgs"
 /
 &cell
    cell_dynamics = "bfgs"
    press         = 0.0
 /
ATOMIC_SPECIES
 Ge  28.086  Ge.pz-dn-kjpaw_psl.0.2.2.UPF
ATOMIC_POSITIONS crystal
 Ge 0.00 0.00 0.00
 Ge 0.25 0.25 0.25
K_POINTS automatic
 9 9 9 0 0 0
