&bands
    prefix     = "silicon",
    outdir     = "outdir",
    filband    = "si.bands",
    no_overlap = .true.,
/

