 &control
    title        = "Molecular dynamics of Si at 0 kBar",
    prefix       = "Si",
    calculation  = "vc-md",
    restart_mode = "from_scratch",
    nstep        = 2000,
    dt           = 41.348,
    outdir       = "calc",
    pseudo_dir   = "../PP/"
 /
 &system
    ibrav       = 0,
    nat         = 64,
    ntyp        = 1,
    nbnd        = 256,
    ecutwfc     = 20,
    nosym       = .TRUE.,
    occupations = "smearing",
    smearing    = "gauss",
    degauss     = 0.05,
 /
 &electrons
    conv_thr    = 5.D-4,
    mixing_beta = 0.5
 /
 &ions
    ion_dynamics      = "beeman",
    wfc_extrapolation = "second_order",
    ion_temperature   = "berendsen",
    tempw             = 100
 /
 &cell
    cell_dynamics     = "pr",
    press             = 0.0,
    cell_factor       = 1.5,
    cell_dofree       = "all"
 /
CELL_PARAMETERS angstrom
     10.8599999999999994    0.0000000000000000    0.0000000000000000
     0.0000000000000000    10.8599999999999994    0.0000000000000000
     0.0000000000000000    0.0000000000000000    10.8599999999999994
ATOMIC_SPECIES
Si 28.805 Si.pz-vbc.UPF
ATOMIC_POSITIONS angstrom
Si  0.0000000000000000  0.0000000000000000  0.0000000000000000
Si  1.3574999999999999  1.3574999999999999  1.3574999999999999
Si  2.7149999999999999  2.7149999999999999  0.0000000000000000
Si  4.0724999999999998  4.0724999999999998  1.3574999999999999
Si  2.7149999999999999  0.0000000000000000  2.7149999999999999
Si  4.0724999999999998  1.3574999999999999  4.0724999999999998
Si  0.0000000000000000  2.7149999999999999  2.7149999999999999
Si  1.3574999999999999  4.0724999999999998  4.0724999999999998
Si  0.0000000000000000  0.0000000000000000  5.4299999999999997
Si  1.3574999999999999  1.3574999999999999  6.7874999999999996
Si  2.7149999999999999  2.7149999999999999  5.4299999999999997
Si  4.0724999999999998  4.0724999999999998  6.7874999999999996
Si  2.7149999999999999  0.0000000000000000  8.1449999999999996
Si  4.0724999999999998  1.3574999999999999  9.5024999999999995
Si  0.0000000000000000  2.7149999999999999  8.1449999999999996
Si  1.3574999999999999  4.0724999999999998  9.5024999999999995
Si  0.0000000000000000  5.4299999999999997  0.0000000000000000
Si  1.3574999999999999  6.7874999999999996  1.3574999999999999
Si  2.7149999999999999  8.1449999999999996  0.0000000000000000
Si  4.0724999999999998  9.5024999999999995  1.3574999999999999
Si  2.7149999999999999  5.4299999999999997  2.7149999999999999
Si  4.0724999999999998  6.7874999999999996  4.0724999999999998
Si  0.0000000000000000  8.1449999999999996  2.7149999999999999
Si  1.3574999999999999  9.5024999999999995  4.0724999999999998
Si  0.0000000000000000  5.4299999999999997  5.4299999999999997
Si  1.3574999999999999  6.7874999999999996  6.7874999999999996
Si  2.7149999999999999  8.1449999999999996  5.4299999999999997
Si  4.0724999999999998  9.5024999999999995  6.7874999999999996
Si  2.7149999999999999  5.4299999999999997  8.1449999999999996
Si  4.0724999999999998  6.7874999999999996  9.5024999999999995
Si  0.0000000000000000  8.1449999999999996  8.1449999999999996
Si  1.3574999999999999  9.5024999999999995  9.5024999999999995
Si  5.4299999999999997  0.0000000000000000  0.0000000000000000
Si  6.7874999999999996  1.3574999999999999  1.3574999999999999
Si  8.1449999999999996  2.7149999999999999  0.0000000000000000
Si  9.5024999999999995  4.0724999999999998  1.3574999999999999
Si  8.1449999999999996  0.0000000000000000  2.7149999999999999
Si  9.5024999999999995  1.3574999999999999  4.0724999999999998
Si  5.4299999999999997  2.7149999999999999  2.7149999999999999
Si  6.7874999999999996  4.0724999999999998  4.0724999999999998
Si  5.4299999999999997  0.0000000000000000  5.4299999999999997
Si  6.7874999999999996  1.3574999999999999  6.7874999999999996
Si  8.1449999999999996  2.7149999999999999  5.4299999999999997
Si  9.5024999999999995  4.0724999999999998  6.7874999999999996
Si  8.1449999999999996  0.0000000000000000  8.1449999999999996
Si  9.5024999999999995  1.3574999999999999  9.5024999999999995
Si  5.4299999999999997  2.7149999999999999  8.1449999999999996
Si  6.7874999999999996  4.0724999999999998  9.5024999999999995
Si  5.4299999999999997  5.4299999999999997  0.0000000000000000
Si  6.7874999999999996  6.7874999999999996  1.3574999999999999
Si  8.1449999999999996  8.1449999999999996  0.0000000000000000
Si  9.5024999999999995  9.5024999999999995  1.3574999999999999
Si  8.1449999999999996  5.4299999999999997  2.7149999999999999
Si  9.5024999999999995  6.7874999999999996  4.0724999999999998
Si  5.4299999999999997  8.1449999999999996  2.7149999999999999
Si  6.7874999999999996  9.5024999999999995  4.0724999999999998
Si  5.4299999999999997  5.4299999999999997  5.4299999999999997
Si  6.7874999999999996  6.7874999999999996  6.7874999999999996
Si  8.1449999999999996  8.1449999999999996  5.4299999999999997
Si  9.5024999999999995  9.5024999999999995  6.7874999999999996
Si  8.1449999999999996  5.4299999999999997  8.1449999999999996
Si  9.5024999999999995  6.7874999999999996  9.5024999999999995
Si  5.4299999999999997  8.1449999999999996  8.1449999999999996
Si  6.7874999999999996  9.5024999999999995  9.5024999999999995
K_POINTS automatic
1 1 1 0 0 0
