 &control
    calculation  = 'vc-relax'
    prefix       = 'germanium',
    outdir       = 'outdir'
    pseudo_dir   = '../../PP/'
    restart_mode = 'from_scratch',
    tstress      = .true. 
/
 &system
    ibrav     = 6, 
    a         = 10.00, 
    c         = 9.00, 
    nat       = 1, 
    ntyp      = 1,
    ecutwfc   = 25.0,
 /
 &electrons
    diagonalization = 'david'
    mixing_mode     = 'plain'
    mixing_beta     = 0.7
    conv_thr        = 1.0d-8
 /
 &ions
 ion_dynamics  = 'bfgs'
 /
 &cell
 cell_dynamics = 'bfgs'
 press         = $PRESS$
 /
ATOMIC_SPECIES
 Ge  72.64  Ge.pbe-dn-kjpaw_psl.0.2.2.UPF
ATOMIC_POSITIONS crystal
 Ge 0.00 0.00 0.00 0 0 0
K_POINTS automatic
 5 5 5 0 0 0
