 &control
    calculation='scf',
    restart_mode='from_scratch',
    prefix='germanium'
    pseudo_dir = '../PP',
    outdir='calc'
    tstress = .true.
 /
 &system
    ibrav     = 2, 
    celldm(1) = 11.00,
    nat       = 2, 
    ntyp      = 1,
    ecutwfc   = 35.0
 /
 &electrons
    mixing_beta = 0.7
    conv_thr    = 1.0d-10
 /
ATOMIC_SPECIES
 Ge  72.64  Ge.pbe-dn-kjpaw_psl.0.2.2.UPF
ATOMIC_POSITIONS crystal
 Ge 0.00 0.00 0.00
 Ge 0.25 0.25 0.25
K_POINTS automatic
 6 6 6 0 0 0
