 &control
    calculation  = 'scf'
    prefix       = 'carbon-diamond',
    outdir       = 'carbon-diamond-outdir'
    pseudo_dir   = '../../../PP/'
    restart_mode = 'from_scratch',
    tstress      = .true.
    tprnfor      = .true.
 /
 &system
    ibrav     = 2, 
    celldm(1) = 6.515,
    nat       = 2, 
    ntyp      = 1,
    ecutwfc   = $CUTOFF$,
    input_dft = 'rvv10',
 /
 &electrons
    diagonalization = 'david'
    mixing_mode     = 'plain'
    mixing_beta     = 0.7
    conv_thr        = 1.0d-8
 /
ATOMIC_SPECIES
 C  12.0107  C.rvv10-n-kjpaw_psl.1.0.0.UPF
ATOMIC_POSITIONS crystal
 C 0.00 0.00 0.00
 C 0.25 0.25 0.25
K_POINTS automatic
$KP$ 0 0 0
