&CONTROL
  calculation = 'scf'
  etot_conv_thr =   4.0000000000d-05
  forc_conv_thr =   1.0000000000d-04
  outdir = './out/'
  prefix = 'carbon-graphite'
  pseudo_dir = '../PP/'
  tprnfor = .true.
  tstress = .true.
  verbosity = 'high'
/
&SYSTEM
  ecutrho =   3.6000000000d+02
  ecutwfc =   4.5000000000d+01
  ibrav = 0
  nat = 4
  nosym = .false.
  ntyp = 1
  occupations = 'fixed'
  input_dft = 'rvv10',
/
&ELECTRONS
  conv_thr =   8.0000000000d-10
  electron_maxstep = 80
  mixing_beta =   4.0000000000d-01
/
ATOMIC_SPECIES
C      12.0107 C.rvv10-n-kjpaw_psl.1.0.0.UPF
ATOMIC_POSITIONS crystal
C            0.0000000000       0.0000000000       0.2500000000
C            0.0000000000       0.0000000000       0.7500000000
C            0.3333333333       0.6666666667       0.2500000000
C            0.6666666667       0.3333333333       0.7500000000
K_POINTS automatic
15 15 5 0 0 0
CELL_PARAMETERS angstrom
      2.4672912600       0.0000000000       0.0000000000
     -1.2336456300       2.1367369097       0.0000000000
      0.0000000000       0.0000000000       7.8030730000
